(set-logic QF_S)
(declare-fun var0 () String)
(assert (str.in.re var0 (re.++ (re.union (re.* (str.to.re "000")) (re.* (str.to.re "111"))) (re.++ (re.+ (re.union (str.to.re "2") (str.to.re "333"))) (re.++ (re.union (re.* (str.to.re "444")) (re.* (str.to.re "555"))) (re.++ (re.+ (re.* (str.to.re "66"))) (re.++ (re.+ (re.+ (str.to.re "7"))) (re.++ (re.+ (re.* (str.to.re "888"))) (re.++ (re.* (re.union (str.to.re "9") (str.to.re "a"))) (re.++ (re.union (re.* (str.to.re "b")) (re.* (str.to.re "ccc"))) (re.++ (re.* (re.union (str.to.re "dd") (str.to.re "eee"))) (re.++ (re.+ (re.* (str.to.re "fff"))) (re.* (re.+ (str.to.re "gg")))))))))))))))
(assert (not (str.in.re var0 (re.++ (re.+ (re.+ (str.to.re "0"))) (re.++ (re.* (re.union (str.to.re "111") (str.to.re "2"))) (re.++ (re.+ (re.union (str.to.re "3") (str.to.re "444"))) (re.++ (re.+ (re.union (str.to.re "555") (str.to.re "666"))) (re.++ (re.+ (re.* (str.to.re "77"))) (re.++ (re.* (re.union (str.to.re "8") (str.to.re "99"))) (re.++ (re.+ (re.* (str.to.re "aa"))) (re.++ (re.* (re.+ (str.to.re "bb"))) (re.++ (re.union (re.union (str.to.re "cc") (str.to.re "d")) (re.union (str.to.re "eee") (str.to.re "fff"))) (re.++ (re.* (re.* (str.to.re "g"))) (re.+ (re.* (str.to.re "h"))))))))))))))))
(check-sat)